sat
(
  (define-fun B () String
    "aaaaaaaaaaaaaaaaaaaaaaaaaaaaaaaa")
  (define-fun F () String
    "aa")
  (define-fun C () String
    "aaaaaaaaaaaaaaaa")
  (define-fun E () String
    "aaaa")
  (define-fun A () String
    "aaaaaaaaaaaaaaaaaaaaaaaaaaaaaaaaaaaaaaaaaaaaaaaaaaaaaaaaaaaaaaaa")
  (define-fun D () String
    "aaaaaaaa")
)
